certificates/rado_a7_c236_N34.cnf
c Rad2 upper bound instance: x1 + 7*x2 - x3 = 236, interval [1,34]
p cnf 34 214
1 3 34 0
-1 -3 -34 0
2 4 34 0
-2 -4 -34 0
3 5 34 0
-3 -5 -34 0
4 6 34 0
-4 -6 -34 0
5 7 34 0
-5 -7 -34 0
1 6 33 0
-1 -6 -33 0
6 8 34 0
-6 -8 -34 0
2 7 33 0
-2 -7 -33 0
7 9 34 0
-7 -9 -34 0
3 8 33 0
-3 -8 -33 0
8 10 34 0
-8 -10 -34 0
4 9 33 0
-4 -9 -33 0
9 11 34 0
-9 -11 -34 0
5 10 33 0
-5 -10 -33 0
10 12 34 0
-10 -12 -34 0
6 11 33 0
-6 -11 -33 0
11 13 34 0
-11 -13 -34 0
7 12 33 0
-7 -12 -33 0
12 14 34 0
-12 -14 -34 0
1 13 32 0
-1 -13 -32 0
8 13 33 0
-8 -13 -33 0
13 15 34 0
-13 -15 -34 0
2 14 32 0
-2 -14 -32 0
9 14 33 0
-9 -14 -33 0
14 16 34 0
-14 -16 -34 0
3 15 32 0
-3 -15 -32 0
10 15 33 0
-10 -15 -33 0
15 17 34 0
-15 -17 -34 0
4 16 32 0
-4 -16 -32 0
11 16 33 0
-11 -16 -33 0
16 18 34 0
-16 -18 -34 0
5 17 32 0
-5 -17 -32 0
12 17 33 0
-12 -17 -33 0
17 19 34 0
-17 -19 -34 0
6 18 32 0
-6 -18 -32 0
13 18 33 0
-13 -18 -33 0
18 20 34 0
-18 -20 -34 0
7 19 32 0
-7 -19 -32 0
14 19 33 0
-14 -19 -33 0
19 21 34 0
-19 -21 -34 0
1 20 31 0
-1 -20 -31 0
8 20 32 0
-8 -20 -32 0
15 20 33 0
-15 -20 -33 0
20 22 34 0
-20 -22 -34 0
2 21 31 0
-2 -21 -31 0
9 21 32 0
-9 -21 -32 0
16 21 33 0
-16 -21 -33 0
21 23 34 0
-21 -23 -34 0
3 22 31 0
-3 -22 -31 0
10 22 32 0
-10 -22 -32 0
17 22 33 0
-17 -22 -33 0
22 24 34 0
-22 -24 -34 0
4 23 31 0
-4 -23 -31 0
11 23 32 0
-11 -23 -32 0
18 23 33 0
-18 -23 -33 0
23 25 34 0
-23 -25 -34 0
5 24 31 0
-5 -24 -31 0
12 24 32 0
-12 -24 -32 0
19 24 33 0
-19 -24 -33 0
24 26 34 0
-24 -26 -34 0
6 25 31 0
-6 -25 -31 0
13 25 32 0
-13 -25 -32 0
20 25 33 0
-20 -25 -33 0
25 27 34 0
-25 -27 -34 0
7 26 31 0
-7 -26 -31 0
14 26 32 0
-14 -26 -32 0
21 26 33 0
-21 -26 -33 0
26 28 34 0
-26 -28 -34 0
1 27 30 0
-1 -27 -30 0
8 27 31 0
-8 -27 -31 0
15 27 32 0
-15 -27 -32 0
22 27 33 0
-22 -27 -33 0
27 29 34 0
-27 -29 -34 0
2 28 30 0
-2 -28 -30 0
9 28 31 0
-9 -28 -31 0
16 28 32 0
-16 -28 -32 0
23 28 33 0
-23 -28 -33 0
28 30 34 0
-28 -30 -34 0
3 29 30 0
-3 -29 -30 0
10 29 31 0
-10 -29 -31 0
17 29 32 0
-17 -29 -32 0
24 29 33 0
-24 -29 -33 0
29 31 34 0
-29 -31 -34 0
4 30 0
-4 -30 0
11 30 31 0
-11 -30 -31 0
18 30 32 0
-18 -30 -32 0
25 30 33 0
-25 -30 -33 0
30 32 34 0
-30 -32 -34 0
5 30 31 0
-5 -30 -31 0
12 31 0
-12 -31 0
19 31 32 0
-19 -31 -32 0
26 31 33 0
-26 -31 -33 0
31 33 34 0
-31 -33 -34 0
6 30 32 0
-6 -30 -32 0
13 31 32 0
-13 -31 -32 0
20 32 0
-20 -32 0
27 32 33 0
-27 -32 -33 0
32 34 0
-32 -34 0
7 30 33 0
-7 -30 -33 0
14 31 33 0
-14 -31 -33 0
21 32 33 0
-21 -32 -33 0
28 33 0
-28 -33 0
1 29 34 0
-1 -29 -34 0
8 30 34 0
-8 -30 -34 0
15 31 34 0
-15 -31 -34 0
22 32 34 0
-22 -32 -34 0
29 33 34 0
-29 -33 -34 0
