certificates/rado_a7_c236_N34.drat
-34 0
32 0
-20 0
18 0
22 0
-6 0
-30 0
-10 0
4 0
8 0
28 0
12 0
-16 0
-33 0
-24 0
-31 0
14 0
11 0
21 0
0
